param C:= 
[*,*,1]:
		1	2	3	4	5	6	:=
	1	29	22	7	33	14	34
	2	8	32	14	30	15	27
	3	31	20	18	7	22	29
	4	30	29	25	12	29	7
	5	26	17	12	27	7	9
	6	20	29	12	6	23	32
[*,*,2]:
		1	2	3	4	5	6	:=
	1	6	27	35	31	24	19	
	2	7	10	7	28	32	29
	3	2	9	17	31	17	27
	4	20	5	19	15	33	33
	5	3	21	7	33	10	28
	6	15	7	19	25	12	21
;

